9
1. I_B97M-D4_def2-QZVPP | final stationary point
O         -1.293456      -0.883490      -0.000004
C         -1.177790       0.423164       0.000005
C          1.233924       0.362385      -0.000018
C          0.004103       1.087767      -0.000007
H          0.009988       2.161242      -0.000006
O          1.301828      -0.865751       0.000037
H         -2.127502       0.933966       0.000019
H          2.160780       0.950874       0.000002
H         -0.375007      -1.242845      -0.000027
