15
2. II_B97M-D4_def2-QZVPP | final stationary point
O          1.287033       1.232763       0.000162
C          1.189666      -0.081721      -0.000037
C         -0.012104      -0.721276      -0.000076
C         -1.242668       0.012980       0.000039
O         -1.266956       1.250215       0.000200
H          0.357308       1.575696       0.000206
C         -2.526563      -0.759249       0.000019
H         -2.578817      -1.407594      -0.869775
H         -2.581052      -1.403431       0.872787
H         -3.367785      -0.081002      -0.002516
C          2.498488      -0.771742      -0.000301
H          3.072404      -0.473051      -0.872101
H          3.072593      -0.473424       0.871499
H          2.381280      -1.846010      -0.000522
H         -0.030812      -1.795392      -0.000312
