16
3. III_B97M-D4_def2-QZVPP | final stationary point
H          0.488422       1.793534       0.014181
O         -1.327785       1.259584      -0.006872
C          1.194030      -0.088045      -0.001028
C         -1.265405       0.026689      -0.012447
C         -0.031602      -0.697855      -0.015748
H         -0.056755      -1.771889      -0.029517
C          2.457442      -0.876378      -0.002779
C         -2.543861      -0.768353       0.010623
H          2.256260      -1.937620      -0.024121
H         -2.411754      -1.789972      -0.325363
H         -3.291199      -0.272753      -0.596281
H         -2.921683      -0.796119       1.029423
H          3.065303      -0.623571      -0.867307
H          3.047160      -0.655663       0.882847
N          1.330688       1.241587       0.015760
H          2.233844       1.661171       0.021492
