19
4. IV_B97M-D4_def2-QZVPP | final stationary point
O         -1.386763      -1.376427      -0.000465
C         -1.624192      -0.160600       0.000272
C         -0.607683       0.837487       0.000244
C          0.737255       0.546709       0.000124
C          1.755217       1.632461      -0.000123
H          2.400099       1.564183      -0.871821
H          1.278842       2.601660       0.000004
H          2.400603       1.564185       0.871199
C         -3.060198       0.291059       0.000045
H         -3.562629      -0.116614      -0.871136
H         -3.562794      -0.116467       0.871204
H         -3.168159       1.368749      -0.000004
H         -0.894159       1.872823       0.000265
N          1.179510      -0.713356       0.000243
H          0.441970      -1.406076       0.000513
C          2.559896      -1.106950       0.000117
H          2.607990      -2.186609       0.000056
H          3.090661      -0.749007      -0.878927
H          3.090795      -0.749105       0.879123
