18
5. V_B97M-D4_def2-QZVPP | final stationary point
O         -1.528128      -1.366921      -0.168365
C         -1.867189      -0.198822      -0.063441
C          0.442272       0.693148       0.016289
C         -0.900137       0.870860       0.027450
H         -1.267366       1.880975       0.111181
C         -3.319081       0.191200      -0.020201
C          1.343332       1.876120       0.115427
H         -3.941390      -0.686459      -0.121214
H          0.758497       2.781771       0.207069
H          2.001712       1.808044       0.975094
H         -3.550409       0.893829      -0.815938
H         -3.549679       0.691804       0.916324
H          1.978880       1.968249      -0.759662
S          1.139498      -0.888939      -0.114262
C          2.910015      -0.552284      -0.056126
H          3.374521      -1.527835      -0.121959
H          3.251140       0.045081      -0.891742
H          3.214515      -0.091748       0.874700
