15
6. VI_B97M-D4_def2-QZVPP | final stationary point
H          0.351307      -1.696474      -0.001968
O         -1.424091      -1.291137      -0.001131
C         -1.508843      -0.067700      -0.000116
C          0.939410       0.497598      -0.000272
C         -0.372242       0.828823       0.000229
H         -0.601360       1.882767       0.001083
C         -2.860022       0.588759       0.000885
C          1.996624       1.549129       0.000108
H         -2.971334       1.228588      -0.870091
H          2.636270       1.449484      -0.871732
H          1.561071       2.539810       0.000866
H         -2.970703       1.227247       0.872926
H         -3.637491      -0.161521       0.000602
H          2.636790       1.448366       0.871426
S          1.571781      -1.109626      -0.001835
