15
7. VII_B97M-D4_def2-QZVPP | final stationary point
H         -0.452939      -1.543780      -0.001351
O         -1.409994      -1.255266      -0.000962
C         -1.444179       0.052875      -0.000172
C          1.014245       0.426916      -0.000537
C         -0.330366       0.852772      -0.000046
H         -0.512165       1.914445       0.000616
C         -2.819001       0.601751       0.000675
C          2.038094       1.518377       0.000528
H         -2.818480       1.682213       0.001366
H          1.907307       2.151854       0.874540
H          3.041987       1.121352      -0.002297
H         -3.358359       0.242620       0.871863
H         -3.359037       0.243712      -0.870541
H          1.904151       2.157274      -0.869006
S          1.514767      -1.160191      -0.001382
