15
8. VIII_B97M-D4_def2-QZVPP | final stationary point
H          0.834950      -1.791711       0.001314
O         -0.133388      -1.584727       0.000517
O          2.393623      -1.177738      -0.001536
C         -0.211480      -0.275188       0.000126
C          2.185828       0.036998      -0.000166
C          0.842285       0.567594       0.000214
H          0.674884       1.626389       0.000346
C         -1.641629       0.200858      -0.000191
C          3.320956       1.008069       0.000008
F         -1.719366       1.530980      -0.000372
H          3.259670       1.655066      -0.870413
H          4.265840       0.484892       0.000137
H          3.259474       1.655336       0.870200
F         -2.288764      -0.247332      -1.077333
F         -2.289155      -0.247061       1.076821
