15
9. IX_B97M-D4_def2-QZVPP | final stationary point
H          0.420977       2.101336      -0.000724
O          1.321691       1.707452      -0.000414
O         -1.275890       1.740777      -0.000316
C          1.169528       0.407447      -0.000050
C         -1.224970       0.519471      -0.000170
C         -0.015845      -0.243863      -0.000025
H         -0.042172      -1.314520       0.000180
C          2.497577      -0.311346       0.000243
F          2.337158      -1.631450       0.000730
F          3.206799       0.020849      -1.077161
F          3.206769       0.021654       1.077408
C         -2.534296      -0.281022      -0.000154
F         -2.588035      -1.071815      -1.079245
F         -2.588629      -1.070580       1.079826
F         -3.593474       0.502858      -0.000894
