9
1. I_r2scan_opt_freq | final stationary point
O         -1.274334      -0.889620       0.000002
C         -1.188197       0.423663      -0.000002
C          1.221544       0.358148       0.000005
C         -0.000001       1.099685       0.000003
H          0.011078       2.182520       0.000003
O          1.261718      -0.887227      -0.000018
H         -2.153245       0.930343      -0.000008
H          2.171019       0.924732       0.000001
H         -0.312715      -1.214931       0.000014
