17
10. X_r2scan_opt_freq | final stationary point
B         -0.313165      -0.018442       1.170676
F         -1.662147      -0.011876       1.412294
F          0.472081      -0.026013       2.278691
O          0.008514      -1.252084       0.338808
O          0.020672       1.217854       0.346577
C          0.002661      -1.213239      -0.950714
C          0.015275       1.187084      -0.943108
C         -0.055910      -0.010538      -1.650831
C          0.107080      -2.536572      -1.627316
C          0.133492       2.513563      -1.611207
H         -0.051557      -0.007118      -2.732262
H          1.001667      -3.055606      -1.267483
H         -0.754173      -3.151769      -1.344703
H          1.027366       3.025675      -1.240081
H         -0.727077       3.131875      -1.333122
H          0.148253      -2.438563      -2.712785
H          0.183622       2.421446      -2.696822
