24
11. XI_r2scan_opt_freq | final stationary point
B         -2.079658      -0.763980       0.254171
F         -2.705956      -1.615275      -0.601165
F         -2.274872      -1.030633       1.586182
O         -0.585428      -0.821703      -0.021163
O         -2.561518       0.648794      -0.018979
C          0.168541       0.223798       0.091950
C         -1.762145       1.656543       0.108872
C         -0.386339       1.500199       0.229240
C         -2.421109       2.993166       0.084144
H          0.240234       2.369900       0.361780
H         -3.020159       3.083550      -0.827957
H         -3.113801       3.065953       0.929820
H         -1.697076       3.807539       0.132277
C          1.615165      -0.027839       0.038322
C          2.531707       0.998042      -0.229227
C          2.086092      -1.329603       0.258856
C          3.891552       0.726474      -0.268373
C          3.447441      -1.592758       0.225761
C          4.352612      -0.567413      -0.036931
H          2.184047       2.004663      -0.436847
H          1.372702      -2.120051       0.464360
H          4.594852       1.524173      -0.486935
H          3.805497      -2.601763       0.406048
H          5.417992      -0.776668      -0.065788
