27
12. XII_r2scan_opt_freq | final stationary point
B         -2.590690      -0.706904      -0.115750
F         -3.217731      -1.504699       0.789654
F         -2.819234      -1.033064      -1.430169
O         -1.094648      -0.781720       0.133129
O         -3.041441       0.725750       0.097809
C         -0.320631       0.239234      -0.057441
C         -2.224724       1.708134      -0.105092
C         -0.856914       1.517524      -0.252011
C         -2.857641       3.057504      -0.137114
H         -0.219419       2.367808      -0.444263
H         -3.440927       3.204390       0.777757
H         -3.561608       3.102208      -0.975488
H         -2.119431       3.854371      -0.236408
C          1.117912      -0.040069      -0.023010
C          2.071228       0.979151       0.099734
C          1.558951      -1.368865      -0.108939
C          3.423260       0.676255       0.127945
C          2.911650      -1.660074      -0.084990
C          3.868325      -0.645405       0.030224
H          1.761729       2.013878       0.203555
H          0.825361      -2.162285      -0.199768
H          4.148928       1.478111       0.236268
H          3.237396      -2.694822      -0.156769
C          5.333830      -0.970650       0.026463
H          5.535172      -1.897873       0.571031
H          5.692726      -1.111901      -1.000579
H          5.924234      -0.167876       0.475895
