30
13. XIII_r2scan_opt_freq | final stationary point
B          2.450789      -0.880324      -0.189919
F          2.975137      -1.598129      -1.218403
F          2.637031      -1.435837       1.055206
O          0.955016      -0.738166      -0.410655
O          3.070509       0.502455      -0.189565
C          0.313832       0.315645      -0.016529
C          2.381902       1.528604       0.196687
C          1.004152       1.475684       0.359128
C          3.174341       2.769938       0.425936
H          0.469916       2.339974       0.727247
H          3.900793       2.589756       1.226011
H          3.746363       3.004509      -0.477891
H          2.539509       3.616581       0.690580
C         -1.149936       0.239249      -0.025792
C         -1.881775       1.396316      -0.336737
C         -1.836923      -0.959645       0.272456
C         -3.263040       1.384048      -0.375277
C         -3.232021      -0.931205       0.245599
C         -3.962782       0.210030      -0.081444
H         -1.350367       2.308043      -0.592072
H         -3.805826       2.288340      -0.638262
H         -3.769794      -1.843172       0.495786
C         -1.149736      -2.240875       0.658777
H         -0.735423      -2.744412      -0.220202
H         -0.312403      -2.072274       1.340624
H         -1.863797      -2.915900       1.137588
C         -5.463132       0.179655      -0.136283
H         -5.865375      -0.704289       0.364846
H         -5.894228       1.070468       0.331503
H         -5.808522       0.160525      -1.177091
