34
14. XIV_r2scan_opt_freq | final stationary point
B          3.921239      -1.010182      -0.050418
F          4.416617      -1.846202       0.900453
F          4.087339      -1.442382      -1.343464
O          2.433480      -0.829438       0.194461
O          4.595995       0.341908       0.083831
C          1.832321       0.285952      -0.075798
C          3.947178       1.426415      -0.191712
C          2.566837       1.446521      -0.346232
C          4.786567       2.653644      -0.298763
H          2.075573       2.374088      -0.599856
H          5.483374       2.537884      -1.136497
H          5.391532       2.757893       0.607721
H          4.184005       3.550753      -0.446843
C          0.367656       0.241117      -0.043845
C         -0.414393       1.404726      -0.036793
C         -0.277835      -1.003941      -0.021278
C         -1.795335       1.324396      -0.015148
C         -1.658740      -1.078700      -0.005236
C         -2.445985       0.081903      -0.002796
H          0.053148       2.383584      -0.037026
H          0.321496      -1.907565      -0.015545
H         -2.384701       2.236277      -0.033261
H         -2.140593      -2.051146       0.034059
C         -3.917934      -0.000968       0.013860
C         -4.586145      -0.988616      -0.721744
C         -4.678452       0.905151       0.764716
C         -5.973007      -1.064276      -0.709177
C         -6.064942       0.823250       0.780924
C         -6.717694      -0.160082       0.042871
H         -4.014163      -1.681092      -1.332961
H         -4.176314       1.656968       1.367227
H         -6.475210      -1.828383      -1.295255
H         -6.638428       1.525165       1.379286
H         -7.801799      -0.221913       0.054290
