35
15. XV_r2scan_opt_freq | final stationary point
B         -3.933005      -0.771779      -0.212064
F         -4.391440      -1.534923      -1.241831
F         -4.108463      -1.320855       1.035033
O         -2.447586      -0.537114      -0.415402
O         -4.640468       0.568109      -0.240578
C         -1.874695       0.571105      -0.063070
C         -4.020273       1.646217       0.117972
C         -2.642322       1.691789       0.279589
C         -4.893993       2.837576       0.317970
H         -2.178001       2.611143       0.604029
H         -5.514731       2.985076      -0.571545
H         -5.574569       2.643703       1.154687
H         -4.316019       3.740279       0.520446
C         -0.411046       0.560909      -0.081329
C          0.336734       1.749938      -0.006747
C          0.253932      -0.675628      -0.177666
C          1.721767       1.725888      -0.018518
C          1.631982      -0.698825      -0.184716
C          2.374869       0.496086      -0.104425
H         -0.169628       2.708088       0.037096
H         -0.330297      -1.588344      -0.235166
H          2.283145       2.654309       0.030917
C          3.793537       0.166991      -0.134410
C          3.925831      -1.231345      -0.232979
C          4.920475       0.986297      -0.083502
C          5.181789      -1.815138      -0.281961
C          6.177244       0.393886      -0.132737
C          6.307569      -0.993329      -0.231175
H          4.823635       2.065818      -0.007221
H          5.292824      -2.893752      -0.358339
H          7.067733       1.014274      -0.094541
H          7.298298      -1.436617      -0.268382
C          2.565269      -1.879979      -0.269095
H          2.408591      -2.457405      -1.189911
H          2.418860      -2.574157       0.569172
