38
16. XVI_r2scan_opt_freq | final stationary point
B         -5.022100       0.231301      -0.004415
F         -5.275705       0.649769      -1.287948
F         -5.674581       0.928190       0.964639
O         -3.529380       0.348506       0.241229
O         -5.414124      -1.230919       0.099048
C         -2.714311      -0.624068      -0.024904
C         -4.558750      -2.162591      -0.172951
C         -3.200293      -1.907322      -0.305517
C         -5.137106      -3.530785      -0.300286
H         -2.531112      -2.716682      -0.557035
H         -5.851232      -3.541950      -1.131051
H         -5.700016      -3.770297       0.607890
H         -4.368649      -4.286681      -0.467666
C         -1.291385      -0.288910       0.021941
C         -0.290014      -1.275029       0.036773
C         -0.903882       1.058634       0.050212
C          1.044843      -0.929120       0.074203
C          0.434159       1.400400       0.082999
C          1.444016       0.421058       0.102383
H         -0.556799      -2.326554       0.035932
H         -1.668386       1.827380       0.036026
H          1.789223      -1.718410       0.080586
H          0.717169       2.449736       0.096902
C          2.830653       0.850320       0.149234
C          3.909254       0.055319       0.298144
C          5.301168       0.477527       0.347852
C          6.280213      -0.475886       0.672685
C          5.721646       1.792910       0.084670
C          7.622887      -0.130625       0.747355
C          7.062270       2.135338       0.158802
C          8.020362       1.177920       0.492502
H          5.974459      -1.499841       0.873833
H          4.996918       2.552619      -0.190906
H          8.360901      -0.884813       1.004188
H          7.367686       3.156407      -0.050712
H          9.069553       1.452189       0.547428
H          3.760527      -1.017151       0.416458
H          2.973743       1.926866       0.074257
