31
17. XVII_r2scan_opt_freq | final stationary point
B          0.174469      -0.000350       2.230145
F          1.146829      -0.030316       3.179779
F         -1.109764       0.041354       2.718322
O          0.307456      -1.235785       1.360828
O          0.383988       1.220069       1.355255
C         -0.031022      -1.204107       0.109655
C          0.041106       1.202724       0.104805
C         -0.247795       0.005599      -0.551228
H         -0.605427       0.014285      -1.569027
C         -0.146031      -2.512482      -0.549582
C         -0.001113       2.512806      -0.559964
C         -0.283675      -3.661578       0.241160
C         -0.086476       3.670213       0.225799
C         -0.118203      -2.639125      -1.944945
C          0.041613       2.632121      -1.955613
C         -0.406400      -4.907640      -0.355683
C         -0.144521       4.918494      -0.376457
C         -0.235319      -3.888804      -2.535561
C         -0.009919       3.883867      -2.551489
C         -0.383669      -5.024921      -1.743222
C         -0.107562       5.028876      -1.764223
H         -0.303131      -3.558371       1.320499
H         -0.118098       3.572107       1.305337
H          0.025253      -1.765439      -2.572408
H          0.145885       1.749692      -2.578549
H         -0.521416      -5.792206       0.263289
H         -0.220439       5.810062       0.238497
H         -0.202871      -3.979752      -3.616987
H          0.033968       3.968846      -3.633000
H         -0.477058      -6.002046      -2.208146
H         -0.150407       6.007563      -2.233267
