36
18. XVIII_r2scan_opt_freq | final stationary point
B          3.002427      -0.025749       1.079898
F          2.985507       0.963337       2.038854
F          3.700393      -1.139310       1.416857
O          1.557118      -0.412237       0.806549
O          3.595036       0.561038      -0.187549
C          0.856820       0.227892      -0.074500
C          2.843961       1.167313      -1.048404
C          1.456552       1.081280      -1.001900
C          3.571536       1.930037      -2.100820
H          0.845211       1.610589      -1.720354
H          4.284704       1.265181      -2.599504
H          4.156207       2.726763      -1.627527
H          2.891244       2.362100      -2.835850
C         -0.602264       0.011851      -0.041558
C         -1.306042       0.327468       1.144045
C         -2.706760      -0.612368      -1.146394
C         -2.739196       0.172841       1.160782
C         -3.395901      -0.286233       0.020274
H         -4.478530      -0.395033       0.041996
C         -0.677990       0.853053       2.311157
C         -1.414550       1.167034       3.420412
C         -2.820473       0.987992       3.443513
C         -3.464010       0.507874       2.339372
H         -0.911617       1.561176       4.298506
H         -3.380852       1.241486       4.338406
H         -4.543209       0.378253       2.335966
C         -0.600260      -0.881154      -2.374005
C         -1.295892      -1.349706      -3.455170
C         -1.273533      -0.467023      -1.187697
C         -2.709317      -1.450053      -3.424829
C         -3.391938      -1.098596      -2.295366
H         -0.757032      -1.663829      -4.344310
H         -3.241690      -1.823304      -4.294412
H         -4.473807      -1.193214      -2.249020
H          0.395527       1.000329       2.330286
H          0.482946      -0.841274      -2.411772
