30
19. XIX_r2scan_opt_freq | final stationary point
B          2.835213      -1.323781       0.207310
F          2.945905      -1.624533       1.543352
F          3.148515      -2.343550      -0.635439
O          1.403187      -0.898679      -0.060532
O          3.744972      -0.145132      -0.086469
C          1.023993       0.330377       0.099361
C          3.315145       1.063753       0.075224
C          1.966226       1.355308       0.240421
C          4.367836       2.118353       0.038879
H          1.661903       2.379383       0.396890
H          5.046975       1.973220       0.886625
H          4.964324       2.002714      -0.871672
H          3.943756       3.122474       0.079662
C         -1.272730      -0.529326       0.199364
C         -0.424409       0.559110       0.086748
C         -0.975645       1.864576      -0.027482
C         -2.331269       2.050092      -0.021245
H         -0.324069       2.723448      -0.144389
H         -2.745022       3.050415      -0.117847
C         -5.448980       0.019998       0.232645
C         -4.909744      -1.280067       0.342466
C         -4.623050       1.112480       0.114546
C         -3.550363      -1.468932       0.333455
C         -3.219340       0.952625       0.101566
C         -2.671390      -0.364191       0.212356
H         -5.577276      -2.131421       0.434633
H         -5.040402       2.112562       0.030124
H         -3.128642      -2.466980       0.417296
H         -6.526689       0.154282       0.242125
H         -0.850769      -1.525294       0.289314
