15
2. II_r2scan_opt_freq | final stationary point
O          1.263033       1.233476      -0.000208
C          1.197859      -0.085919      -0.000069
C         -0.007487      -0.743892       0.000072
C         -1.232535       0.001923      -0.000028
O         -1.235946       1.255272      -0.000158
H          0.286019       1.540330      -0.000127
C         -2.539671      -0.746732       0.000032
H         -2.602466      -1.395684      -0.880678
H         -2.603483      -1.393493       0.882295
H         -3.373176      -0.043180      -0.001242
C          2.522645      -0.767532      -0.000168
H          3.095549      -0.458252      -0.881218
H          3.095737      -0.458153       0.880725
H          2.414347      -1.853153      -0.000097
H         -0.028412      -1.827248       0.000143
