25
20. XX_r2scan_opt_freq | final stationary point
O          0.826351      -1.346077      -0.090832
O          2.684072       0.262260      -0.050120
C          1.854133       1.238787      -0.033684
C          2.458969       2.583287       0.141230
H          2.293638       3.174858      -0.765937
H          1.963896       3.137914       0.942458
H          3.526862       2.470835       0.331277
C          0.014795      -0.344146      -0.104699
C         -1.395237      -0.617823      -0.040084
C          0.459888       0.994814      -0.139309
C         -2.278256       0.469851      -0.056071
C         -0.491803       2.096559      -0.169164
O         -1.844392       1.757846      -0.129958
O         -0.233307       3.272086      -0.229089
C         -3.654999       0.272875      -0.003676
C         -1.911701      -1.922876       0.025193
C         -3.276192      -2.122213       0.080085
C         -4.143140      -1.021765       0.065650
H         -4.313075       1.134941      -0.019374
H         -5.216567      -1.181287       0.106919
H         -3.677681      -3.128670       0.131128
H         -1.216992      -2.755875       0.030039
B          2.292926      -1.169146      -0.424550
F          2.447830      -1.296753      -1.777001
F          3.022554      -2.020186       0.336201
