29
21. XXI_r2scan_opt_freq | final stationary point
B          0.123233      -0.043888      -0.720758
O         -0.091310       1.223731       0.163680
O         -0.138273      -1.266260       0.211897
C          0.155392       1.199258       1.423561
C          0.104888      -1.203036       1.470555
C          0.353797       0.006966       2.121840
C          0.159946       2.529005       2.104039
C          0.046766      -2.503394       2.203198
H          0.546404       0.023756       3.186061
H          0.941300       3.155796       1.660685
H         -0.934942      -2.962719       2.046479
H         -0.795411       3.032027       1.921299
H          0.790956      -3.187159       1.780849
H          0.328136       2.438965       3.178193
H          0.226868      -2.379839       3.272110
C          1.667776      -0.093891      -1.166237
C         -0.999384      -0.032766      -1.859930
H          1.868265      -1.062351      -1.648959
H         -0.937045       0.915269      -2.414763
H          2.322872      -0.070353      -0.278828
H         -1.998462      -0.035880      -1.395811
C          2.069036       1.040726      -2.117693
C         -0.893414      -1.205111      -2.843617
H          1.502800       0.988623      -3.054434
H          0.062027      -1.187590      -3.380462
H          3.134205       1.010826      -2.374852
H         -1.691702      -1.189198      -3.594554
H          1.864056       2.021881      -1.672868
H         -0.952653      -2.166448      -2.319763
