37
22_XXII_r2scan_freq | last geometry in file (optimization may not have converged)
B          0.090716      -0.087605       0.203689
O          0.377971       0.990790       1.274565
O          0.074777      -1.438427       0.958964
C         -0.437261      -1.491814       2.140252
C         -0.143229       0.866879       2.446754
C         -0.672128      -0.342868       2.895100
C         -0.089975       2.086104       3.303256
C         -0.706812      -2.862966       2.660050
H         -1.091875      -0.419253       3.889089
H          0.919924       2.506608       3.277996
H          0.174978      -3.492289       2.505136
H         -0.762708       2.841072       2.879267
H         -1.522895      -3.303622       2.075038
H         -0.983159      -2.855918       3.715182
H         -0.385338       1.878957       4.332735
C          1.314141      -0.108046      -0.823550
C         -1.372718       0.173278      -0.403034
C          1.133481       0.040753      -2.204879
C          2.626285      -0.285403      -0.354162
C         -1.883500       1.470717      -0.541827
C         -2.166591      -0.883772      -0.868807
C          2.213925       0.012867      -3.084817
C          3.711634      -0.313802      -1.222971
C         -3.133994       1.705219      -1.107733
C         -3.418198      -0.660081      -1.436666
C          3.506302      -0.164535      -2.595749
C         -3.907984       0.637900      -1.555374
H          0.127153       0.182293      -2.597887
H          2.802028      -0.403944       0.716502
H         -1.285399       2.317390      -0.208322
H         -1.792634      -1.903753      -0.794380
H          4.719073      -0.452939      -0.833638
H          2.046325       0.131226      -4.154107
H         -4.012155      -1.499329      -1.790505
H         -3.505303       2.722805      -1.203213
H          4.351210      -0.186246      -3.279093
H         -4.883940       0.816748      -1.998561
