27
23. XXIII_r2scan_opt_freq | final stationary point
B         -0.077174       0.172464       0.242846
O         -1.280090      -0.076820       1.127719
O          1.161678      -0.117289       1.063742
C          1.174021       0.057177       2.345042
C         -1.219365       0.097300       2.407786
C         -0.001901       0.234797       3.068674
C          2.520654       0.017060       2.979167
C         -2.531417       0.102200       3.111574
H          0.028586       0.374406       4.140629
H          3.122598       0.844865       2.587658
H          3.029020      -0.909615       2.693277
H         -3.125829       0.948796       2.749864
H         -3.084247      -0.807662       2.855632
H          2.462414       0.088669       4.065940
H         -2.414147       0.173125       4.193637
O         -0.121439      -0.668578      -0.922322
O         -0.065287       1.556915      -0.188816
C         -0.134065       0.182790      -1.991654
C         -0.100719       1.512628      -1.555432
C         -0.173063      -0.134997      -3.332976
C         -0.105513       2.567223      -2.444184
C         -0.178231       0.931283      -4.244611
C         -0.145283       2.252758      -3.810665
H         -0.198343      -1.168823      -3.661696
H         -0.079598       3.593972      -2.093638
H         -0.208602       0.716955      -5.308580
H         -0.150260       3.057523      -4.539409
