34
24. XXIV_r2scan_opt_freq | final stationary point
B          0.577232      -0.944281       0.073766
O         -0.137610       0.358746      -0.197458
O          2.041995      -0.728910      -0.208023
C          0.442650       1.502348       0.003097
C          2.588181       0.428506       0.001644
C          1.827927       1.577132       0.176591
H          2.316994       2.518139       0.381435
O          0.391333      -1.321341       1.465784
O          0.042968      -1.994431      -0.753082
C         -0.236973      -2.533981       1.435094
C         -0.443766      -2.934669       0.109126
C         -0.641650      -3.313427       2.499016
C         -1.062145      -4.129649      -0.194218
C         -1.271328      -4.530235       2.198906
C         -1.476649      -4.928792       0.881509
H         -0.475595      -2.992218       3.522303
H         -1.217438      -4.431807      -1.224834
H         -1.602542      -5.169850       3.011293
H         -1.966600      -5.876221       0.678374
C         -0.443115       2.671599       0.008643
C          0.053349       3.971608      -0.162026
C         -1.820516       2.480038       0.187672
C         -0.810975       5.056212      -0.147091
C         -2.677861       3.569896       0.209083
C         -2.176906       4.858752       0.042532
H          1.111583       4.136582      -0.335834
H         -2.199516       1.472524       0.319403
H         -0.420583       6.059120      -0.290279
H         -3.742150       3.414736       0.357310
H         -2.851088       5.710167       0.056502
C          4.077319       0.429716       0.017650
H          4.424501      -0.162399       0.872238
H          4.450460      -0.064138      -0.885259
H          4.484906       1.439264       0.085068
