41
25. XXV_r2scan_opt_freq | final stationary point
B         -0.001077       0.005887      -1.182756
O          0.217858       1.228785      -0.333890
O          0.242363      -1.200121      -0.315235
C         -0.108955       1.221945       0.925682
C         -0.085574      -1.180985       0.943800
C         -0.340214       0.023139       1.599382
H         -0.689418       0.027858       2.620296
O          0.885476       0.005534      -2.318176
O         -1.370664      -0.012427      -1.679629
C          0.081328      -0.015071      -3.419984
C         -1.267012      -0.025854      -3.039841
C          0.455858      -0.025121      -4.747534
C         -2.282600      -0.046940      -3.974191
C         -0.570293      -0.046590      -5.703603
C         -1.909875      -0.057281      -5.325981
H          1.503033      -0.016683      -5.032057
H         -3.323698      -0.055103      -3.667714
H         -0.310593      -0.055041      -6.757861
H         -2.682607      -0.073898      -6.088457
C         -0.198433       2.539581       1.564537
C         -0.150694      -2.490470       1.602052
C         -0.149257       2.685299       2.957907
C         -0.098139      -2.615088       2.997315
C         -0.332943       3.679375       0.759439
C         -0.265063      -3.643938       0.813496
C         -0.242064       3.944282       3.532301
C         -0.167939      -3.867256       3.589736
C         -0.431704       4.934859       1.340743
C         -0.340987      -4.892549       1.412786
C         -0.387548       5.071191       2.726078
C         -0.293612      -5.008056       2.799886
H         -0.008136       1.817955       3.594752
H          0.027808      -1.736379       3.621638
H         -0.370028       3.561517      -0.318018
H         -0.304899      -3.542140      -0.265486
H         -0.193200       4.049981       4.611774
H         -0.116517      -3.956524       4.670575
H         -0.545058       5.812123       0.711156
H         -0.439073      -5.780629       0.795930
H         -0.462183       6.055792       3.178397
H         -0.350351      -5.987214       3.266409
