42
26. XXVI_r2scan_opt_freq | final stationary point
B         -0.349191       0.061501      -0.507771
C         -0.068739       1.158646       1.804179
C         -0.097463      -1.137471       1.757040
C         -1.852034       0.110532      -1.129615
C          0.841192       0.049869      -1.613788
H         -2.593691       0.081715      -0.312564
H          1.821869       0.058210      -1.107698
H         -2.014991       1.079607      -1.632764
H          0.815057      -0.899034      -2.177441
C          0.800935       1.201420      -2.624841
C         -2.179784      -1.007240      -2.126011
H          0.823147       2.167653      -2.095440
H         -2.015809      -1.988351      -1.652199
H         -0.154068       1.181194      -3.167134
H         -1.480936      -0.964025      -2.972705
C          1.952138       1.170057      -3.630684
C         -3.613530      -0.952317      -2.654544
H         -3.799300      -0.000437      -3.165588
H          1.937254       0.235627      -4.203751
H          2.919605       1.224964      -3.118247
H         -4.335061      -1.029657      -1.832982
H          1.899593       2.001642      -4.342807
H         -3.822032      -1.761208      -3.364293
N         -0.162133       1.260570       0.497985
N         -0.191781      -1.182659       0.447572
N         -0.058625      -0.004281       2.478258
H         -0.152807       2.201820       0.129350
H         -0.191079      -2.106749       0.037668
C          0.047238       2.389874       2.667819
C         -0.011632      -2.406358       2.568229
H         -0.765679       2.328544       3.402000
H          0.918707      -2.345293       3.146708
H          0.967888       2.274475       3.253236
H         -0.813976      -2.348950       3.314131
C          0.028131       3.734120       1.951148
C         -0.083025      -3.718548       1.797567
H          0.106280       4.546760       2.678587
H         -0.030477      -4.562586       2.490752
H          0.870384       3.840183       1.257818
H         -1.022515      -3.814210       1.241360
H         -0.903560       3.887178       1.394663
H          0.751170      -3.826858       1.094918
