50
27. XXVII_r2scan_opt_freq | final stationary point
B          0.364617      -0.204590      -1.649458
C          0.341171       1.032109       0.607873
C         -0.053441      -1.231495       0.668915
C         -0.745522       0.030549      -2.810369
C          1.855901      -0.559365      -2.193616
H         -1.733519       0.217298      -2.355894
H          2.545471      -0.666718      -1.338303
H         -0.505766       0.951647      -3.369924
H          1.847745      -1.548056      -2.684475
C          2.446001       0.459368      -3.174846
C         -0.878372      -1.113857      -3.821764
H          2.460428       1.458497      -2.711479
H         -1.107740      -2.055301      -3.297061
H          1.791810       0.546161      -4.053416
H          0.086563      -1.279373      -4.319855
C          3.862651       0.113122      -3.634657
C         -1.956467      -0.870130      -4.877844
H          3.878505      -0.862572      -4.134283
H         -1.738224       0.040085      -5.448552
H          4.546131       0.055040      -2.779714
H         -2.938363      -0.736476      -4.409362
H          4.260626       0.856240      -4.335241
H         -2.031272      -1.701859      -5.587660
N          0.414193       1.058133      -0.706675
N         -0.100472      -1.326297      -0.645365
N          0.185606      -0.088994       1.334105
H          0.579235       1.965618      -1.120625
H         -0.402244      -2.219959      -1.009345
C          0.436367       2.296994       1.377847
C         -0.312223      -2.432196       1.499700
C          0.039808       3.520767       0.827388
C         -0.018754      -3.716467       1.027602
C          0.936856       2.266063       2.683388
C         -0.852907      -2.281814       2.780688
C          0.156262       4.692883       1.564261
C         -0.278411      -4.830417       1.816244
C          1.063922       3.441710       3.411520
C         -1.119560      -3.398308       3.561932
C          0.675766       4.657615       2.855202
C         -0.835886      -4.674548       3.082136
H         -0.402045       3.561591      -0.165096
H          0.456645      -3.848857       0.058900
H          1.226570       1.310495       3.106662
H         -1.061481      -1.280785       3.142611
H         -0.168760       5.634943       1.132830
H         -0.033255      -5.821677       1.446697
H          1.465917       3.409246       4.419948
H         -1.550117      -3.273176       4.551157
H          0.769765       5.575153       3.428801
H         -1.040135      -5.546209       3.697187
