33
28. XXVIII_r2scan_opt_freq | final stationary point
B          0.379859       0.048046      -0.300962
C         -2.157200      -0.586815      -0.036653
C         -0.581836      -2.369503      -0.034712
H         -3.204067      -0.294140       0.027064
C          1.152993       0.774437       0.931347
C          0.847555       0.488492      -1.787384
H          2.197447       0.946480       0.628853
H          1.867793       0.099684      -1.931533
H          1.211781       0.093598       1.795277
H          0.231821      -0.020870      -2.549214
C          0.561575       2.103773       1.424410
C          0.859428       1.990730      -2.088747
H          0.396292       2.790420       0.581165
H          1.531857       2.500150      -1.385676
H         -0.427681       1.923006       1.873085
H         -0.139584       2.426263      -1.920784
C          1.442886       2.802364       2.460395
C          1.295210       2.311825      -3.519013
H          1.612961       2.150995       3.325166
H          0.621211       1.845218      -4.246682
H          2.422769       3.043447       2.033422
H          2.302276       1.923813      -3.709278
H          0.992993       3.734376       2.820843
H          1.306955       3.390522      -3.711916
N         -1.209970       0.293085      -0.156662
N          0.441951      -1.518970      -0.172239
N         -0.216195      -3.638353       0.048341
C          1.137801      -3.508653      -0.050182
N          1.579636      -2.261114      -0.183394
H          1.814141      -4.353643      -0.023704
N         -1.897008      -1.900646       0.018634
H         -2.638428      -2.575902       0.115083
H         -1.524890       1.253615      -0.178243
