43
29. XXIX_r2scan_opt_freq | final stationary point
B          1.516089      -0.000648       0.084264
C         -1.078386       0.477649      -0.020499
C          0.411740       2.336592      -0.236892
C          2.178679      -0.387442       1.509859
H          3.193220       0.040502       1.522904
H          1.639159       0.115565       2.331000
C          2.282521      -1.881803       1.831326
H          2.883108      -2.382041       1.059767
H          1.287327      -2.356082       1.792781
C          2.898061      -2.159721       3.203234
H          2.299139      -1.702515       3.999316
H          3.905601      -1.733120       3.264872
H          2.972749      -3.233418       3.410216
C          2.174918      -0.725731      -1.219035
H          2.114458      -0.055863      -2.091723
H          3.251803      -0.862461      -1.034715
C          1.571878      -2.077643      -1.627774
H          0.533691      -1.927589      -1.963774
H          1.517246      -2.754720      -0.762617
C          2.350429      -2.769888      -2.746611
H          3.378633      -2.977443      -2.429722
H          2.404117      -2.129370      -3.634331
H          1.890077      -3.720037      -3.041141
N         -0.058594      -0.323181       0.134635
N          1.490031       1.559063      -0.088362
N          0.698613       3.617795      -0.411916
C          2.060317       3.573218      -0.358655
N          2.581628       2.364802      -0.166206
H          2.683348       4.452634      -0.462974
N         -0.875080       1.798976      -0.204482
H         -1.640794       2.396948      -0.473475
H         -0.314576      -1.277724       0.350913
C         -2.471418      -0.004902       0.003885
C         -3.475939       0.749202       0.620201
C         -2.790720      -1.231026      -0.589276
C         -4.782636       0.278123       0.642100
C         -4.099480      -1.694246      -0.564682
C         -5.096565      -0.941866       0.050141
H         -3.229645       1.683591       1.117471
H         -2.019925      -1.803195      -1.099064
H         -5.555928       0.860802       1.133112
H         -4.343827      -2.640792      -1.036809
H         -6.119083      -1.306654       0.067908
