16
3. III_r2scan_opt_freq | final stationary point
O         -1.328315       1.271406      -0.007989
C         -1.267212       0.027555      -0.014640
C         -0.030379      -0.703465      -0.015767
C          1.202292      -0.088380      -0.001047
C          2.475719      -0.880736       0.000753
H          3.071247      -0.648864       0.891757
H          2.271295      -1.951886      -0.009658
H          3.083161      -0.634073      -0.878184
C         -2.557845      -0.767054       0.008637
H         -2.927194      -0.805260       1.040492
H         -3.312161      -0.251913      -0.590922
H         -2.430158      -1.793028      -0.346898
H         -0.058993      -1.786787      -0.026254
N          1.330057       1.249009       0.011337
H          0.463748       1.788091       0.009261
H          2.236898       1.681108       0.019320
