46
30. XXX_r2scan_opt_freq | final stationary point
B          1.847453      -0.093797       0.079197
C         -0.692817       0.619108      -0.031236
C          0.961685       2.338079      -0.215087
C          2.456782      -0.540863       1.511641
H          3.503395      -0.199393       1.538801
H          1.951180       0.003666       2.327941
C          2.432212      -2.038986       1.830995
H          2.992878      -2.587665       1.062344
H          1.400689      -2.426997       1.787427
C          3.015219      -2.368957       3.205800
H          2.453270      -1.863060       3.999383
H          4.054885      -2.028888       3.272803
H          2.997978      -3.445220       3.412227
C          2.458531      -0.870088      -1.217453
H          2.470221      -0.196711      -2.089348
H          3.516288      -1.101003      -1.016915
C          1.745928      -2.164194      -1.637025
H          0.729094      -1.924197      -1.985824
H          1.622202      -2.834319      -0.773520
C          2.476916      -2.920110      -2.746588
H          3.478525      -3.216577      -2.415617
H          2.599000      -2.285295      -3.631638
H          1.940243      -3.826222      -3.050703
N          0.250612      -0.273593       0.108917
N          1.964619       1.463247      -0.082866
N          1.364203       3.590432      -0.371997
C          2.716309       3.420708      -0.324581
N          3.125361       2.167011      -0.151654
H          3.416858       4.240998      -0.418243
N         -0.368877       1.920422      -0.187905
H         -1.075560       2.589649      -0.450295
H         -0.092720      -1.204415       0.306636
C         -2.121840       0.264782      -0.016386
C         -3.061237       1.096401       0.604129
C         -2.555492      -0.917580      -0.622667
C         -4.402060       0.744356       0.617337
C         -3.900791      -1.257929      -0.605557
C         -4.845694      -0.437463       0.015122
H         -2.738350       2.001463       1.111862
H         -1.843406      -1.553792      -1.142021
H         -5.118874       1.393642       1.113798
H         -4.225498      -2.172610      -1.094283
C         -6.298530      -0.816673       0.056662
H         -6.524158      -1.616124      -0.653222
H         -6.575956      -1.168943       1.057339
H         -6.937972       0.041169      -0.173554
