69
31_XXXI_r2scan_opt_freq | final stationary point
B         -1.856583      -0.558369       0.344207
C          0.567927      -0.151951      -0.270989
C         -0.207286      -2.240976      -0.884266
N         -0.654521       0.412592      -0.109573
N         -1.428717      -2.018010      -0.282313
C         -1.986606      -4.292732      -0.712479
C         -2.257271      -3.071800      -0.145118
N          0.785509      -1.379761      -0.758846
H         -2.661945      -5.130047      -0.590131
C         -3.328560      -0.291385      -0.379097
C         -1.861228      -0.828656       1.976769
H         -3.748249      -1.306340      -0.443152
H         -2.687070      -1.540039       2.168173
C         -3.219947       0.137434      -1.851736
C         -0.564733      -1.502321       2.465678
C         -4.460435       0.455883       0.348489
C         -2.114220       0.367925       2.905057
H         -4.626671       0.041701       1.349099
H         -3.057579       0.882162       2.702560
H         -4.299221       1.530369       0.458888
H         -1.300721       1.101769       2.830825
H         -5.399876       0.336130      -0.208283
H         -2.143579       0.039769       3.952791
H         -2.904898       1.178629      -1.970982
H          0.297073      -0.837533       2.316851
H         -4.184344       0.035759      -2.367138
H         -0.614242      -1.722368       3.540228
H         -2.487483      -0.476540      -2.390327
H         -0.342667      -2.443463       1.951796
C         -0.826413      -4.365601      -1.494978
H         -0.601213      -5.265782      -2.069336
N          1.705605       0.547050      -0.017148
H          1.628176       1.435523       0.448628
C          3.055034       0.013120      -0.181689
C          3.485230      -0.831801       1.023082
C          4.025081       1.173887      -0.409611
C          4.916610      -1.343085       0.848516
C          5.458144       0.663023      -0.579462
C          5.892080      -0.187267       0.616270
H          2.783133      -1.664941       1.140587
H          3.712896       1.750552      -1.289928
H          5.215291      -1.927792       1.726696
H          5.516447       0.056804      -1.494812
H          5.926373       0.444292       1.516451
C         -0.639978       1.897021      -0.021471
C         -1.954846       2.575496       0.349361
C         -0.147531       2.528953      -1.341379
C         -1.720599       4.074953       0.569005
C          0.098208       4.029774      -1.170367
C         -1.164542       4.744564      -0.687575
H         -2.383573       2.134686       1.246621
H         -0.924539       2.361622      -2.099019
H         -1.018538       4.217245       1.404300
H          0.907470       4.183986      -0.439322
H         -1.924432       4.699861      -1.481005
N          0.045227      -3.384420      -1.581696
H          3.986159       1.855473       0.456091
H          6.141314       1.509600      -0.718157
H          6.908061      -0.569474       0.459144
H          4.950611      -2.027520      -0.011509
H          3.418079      -0.212765       1.930893
H          0.047349       2.200892       0.793686
H          0.758372       2.036039      -1.704716
H          0.447083       4.461336      -2.116294
H         -0.960269       5.806047      -0.501111
H         -2.662839       4.549529       0.868649
H         -2.678013       2.450865      -0.460446
H          3.042096      -0.630164      -1.070207
H         -3.154073      -2.906502       0.442141
