46
32. XXXII_r2scan_opt_freq | final stationary point
B          1.618367       0.028228       0.103082
C         -0.953924       0.584881      -0.013368
C          0.595592       2.370014      -0.389911
C          2.376528      -0.355589       1.488544
H          3.429002      -0.581628       1.257870
H          2.410240       0.520743       2.154531
C          1.789329      -1.528060       2.288510
H          1.648935      -2.406829       1.641368
H          0.789235      -1.256011       2.660943
C          2.655164      -1.931425       3.482288
H          2.797417      -1.081806       4.159716
H          3.647559      -2.254204       3.148152
H          2.208272      -2.751557       4.055811
C          2.132889      -0.753339      -1.223227
H          1.529782      -0.452442      -2.098914
H          3.152715      -0.396545      -1.438325
C          2.160876      -2.282641      -1.147871
H          1.165949      -2.671527      -0.875158
H          2.835858      -2.596639      -0.340494
C          2.600369      -2.943244      -2.455051
H          3.602685      -2.603971      -2.739930
H          1.920674      -2.678418      -3.273720
H          2.624068      -4.036183      -2.375769
N          0.036431      -0.218549       0.264369
N          1.646993       1.575255      -0.160564
N          0.922387       3.631467      -0.625809
C          2.280364       3.555462      -0.523178
N          2.762325       2.347230      -0.246047
H          2.929927       4.411611      -0.655619
N         -0.704269       1.863750      -0.361873
H         -1.459286       2.466239      -0.650444
H         -0.253902      -1.131506       0.588292
C         -2.371071       0.171619       0.065704
C         -3.238156       0.940072       0.851964
C         -2.842406      -0.956511      -0.630890
C         -4.575201       0.591639       0.972985
C         -4.195281      -1.278771      -0.498096
C         -5.052398      -0.524946       0.294003
H         -2.847495       1.798674       1.392116
H         -5.237647       1.185179       1.594951
H         -4.583322      -2.136667      -1.041248
H         -6.098186      -0.806379       0.374803
C         -1.964468      -1.793818      -1.523991
H         -1.473150      -2.599138      -0.964272
H         -2.565352      -2.266858      -2.304831
H         -1.175510      -1.207059      -2.001673
