39
33. XXXIII_r2scan_opt_freq | final stationary point
B         -0.150028      -0.072065       0.008950
C         -2.717666      -0.332320      -0.124431
C         -1.542697      -2.251983      -0.038815
H         -3.690057       0.162049      -0.180740
C          0.400157       0.297292       1.492069
C          0.796041       0.427179      -1.221294
H          1.350897      -0.236231       1.665500
H          1.849081       0.437571      -0.893382
H         -0.296210      -0.086974       2.257257
H          0.753412      -0.290377      -2.057498
C          0.643029       1.786795       1.753551
C          0.460675       1.813317      -1.790908
H          1.393636       2.169559       1.046741
H          0.376819       2.554089      -0.980811
H         -0.277857       2.360722       1.557137
H         -0.525952       1.779748      -2.278516
C          1.107045       2.097847       3.177612
C          1.483427       2.323541      -2.807132
H          0.358759       1.722458       3.889198
H          1.584070       1.585523      -3.615069
H          2.029813       1.536951       3.381695
H          2.467829       2.381368      -2.322328
N         -1.636696       0.421230      -0.168631
N         -0.337197      -1.664095      -0.064485
S         -1.400434      -3.997847      -0.051726
C          0.336960      -3.860143      -0.094613
C          0.706977      -2.559371      -0.098287
N         -2.742400      -1.658443      -0.032714
H         -1.805778       1.413069      -0.262513
C          1.345792       3.587611       3.415282
C          1.115008       3.685365      -3.392198
H          0.428891       4.164230       3.246261
H          0.150197       3.641434      -3.910712
H          2.110380       3.976402       2.732752
H          1.032343       4.441992      -2.603274
H          1.680007       3.786250       4.439023
H          1.864130       4.033409      -4.110954
H          0.975043      -4.731062      -0.111876
H          1.721106      -2.180319      -0.123438
