52
34. XXXIV_r2scan_opt_freq | final stationary point
B          1.501201       0.262150      -0.039584
C         -1.062736       0.589873      -0.003416
C          0.200890       2.473255      -0.055156
C          2.464528      -0.306959       1.145880
C          1.985206      -0.098991      -1.549558
H          3.501998      -0.366789       0.776461
H          2.955270       0.391465      -1.742781
H          2.492843       0.395232       1.995768
H          1.283084       0.338475      -2.280667
C          2.079836      -1.684453       1.705220
C          2.136835      -1.592258      -1.851519
H          1.932250      -2.405846       0.886677
H          2.890544      -2.031836      -1.181582
H          1.114258      -1.611618       2.229840
H          1.192692      -2.118582      -1.631911
C          3.108903      -2.262352       2.678148
C          2.530555      -1.896193      -3.298005
H          3.270544      -1.544520       3.494315
H          1.778632      -1.464265      -3.972769
H          4.073459      -2.359021       2.160855
H          3.474833      -1.381919      -3.525165
N          0.007038      -0.170772       0.179276
N          1.385349       1.852980       0.062642
S          0.395021       4.218413      -0.021357
C          2.119927       4.027492       0.156465
C          2.449173       2.716037       0.181738
N         -1.005539       1.920095      -0.163956
H         -0.183190      -1.136500       0.405707
C          2.692949      -3.615263       3.252023
C          2.677366      -3.391070      -3.575462
H          1.748133      -3.534699       3.801975
H          1.735757      -3.920124      -3.387050
H          2.548630      -4.352007       2.453152
H          3.441069      -3.836991      -2.927661
H          3.446575      -4.012455       3.940013
H          2.965877      -3.584703      -4.614023
H          2.781148       4.878471       0.223515
C         -2.408566      -0.022167      -0.003509
C         -3.525248       0.749599       0.334635
C         -2.599966      -1.365292      -0.344532
C         -4.789953       0.182835       0.355930
C         -3.870897      -1.923651      -0.326376
C         -4.986010      -1.163580       0.032891
H         -3.381009       1.796341       0.579074
H         -1.761964      -1.974888      -0.673586
H         -5.645954       0.796485       0.626805
H         -4.001825      -2.964873      -0.610173
C         -6.357736      -1.775023       0.086994
H         -7.121359      -1.068679      -0.252298
H         -6.419613      -2.674771      -0.531163
H         -6.612435      -2.061129       1.114966
H          3.447024       2.306131       0.278260
