67
35. XXXV_r2scan_opt_freq | final stationary point
B         -1.870604      -0.636883       0.402782
C          0.568963      -0.093165      -0.180929
C         -0.139996      -2.187084      -0.720136
N         -0.685551       0.399431      -0.030744
N         -1.422901      -2.000878      -0.373534
C         -1.539515      -4.181917      -1.128876
C         -2.189592      -3.133130      -0.582208
N          0.861273      -1.352965      -0.552402
H         -1.944893      -5.152247      -1.373113
C         -3.399123      -0.369773      -0.169507
C         -1.806835      -1.002288       2.009890
H         -3.795430      -1.394772      -0.152746
H         -2.688290      -1.640369       2.210516
C         -3.472642       0.035757      -1.650698
C         -0.571164      -1.817342       2.433893
C         -4.471341       0.351655       0.669666
C         -1.902267       0.198702       2.963237
H         -4.508589      -0.050721       1.687226
H         -2.820794       0.777112       2.833876
H         -4.345066       1.433399       0.747128
H         -1.049905       0.877342       2.819952
H         -5.460515       0.184320       0.222024
H         -1.871869      -0.130116       4.010642
H         -3.223552       1.089518      -1.812310
H          0.351744      -1.239015       2.291783
H         -4.481804      -0.116211      -2.056450
H         -0.621674      -2.077439       3.499479
H         -2.775500      -0.552269      -2.259561
H         -0.465010      -2.753677       1.876197
N          1.668431       0.693840      -0.025290
H          1.549986       1.604550       0.384859
C          3.044581       0.221204      -0.158028
C          3.515949      -0.542621       1.085257
C          3.952682       1.420407      -0.437532
C          4.971888      -0.987256       0.931204
C          5.411219       0.979160      -0.585144
C          5.886743       0.205784       0.646841
H          2.856753      -1.402880       1.243245
H          3.611144       1.940907      -1.341481
H          5.300015      -1.516737       1.833398
H          5.504282       0.338265      -1.473644
H          5.885621       0.877777       1.517679
C         -0.752108       1.885688      -0.036617
C         -2.062609       2.520318       0.411554
C         -0.392728       2.447511      -1.426738
C         -1.899748       4.042224       0.501430
C         -0.231422       3.968711      -1.381930
C         -1.494315       4.642886      -0.844957
H         -2.371700       2.121856       1.377069
H         -1.205417       2.176720      -2.113692
H         -1.138285       4.287029       1.257140
H          0.621529       4.224866      -0.734061
H         -2.312817       4.495116      -1.564330
H          3.876704       2.134093       0.398963
H          6.049006       1.853835      -0.760018
H          6.921605      -0.129182       0.506497
H          5.042297      -1.705533       0.101473
H          3.417071       0.115551       1.961792
H         -0.023524       2.273601       0.701368
H          0.517967       1.981836      -1.815484
H          0.012539       4.348436      -2.381502
H         -1.343845       5.725653      -0.753718
H         -2.839417       4.487431       0.850011
H         -2.849127       2.296715      -0.311058
H          3.076270      -0.460916      -1.016742
H         -3.231729      -3.141557      -0.297324
S          0.138189      -3.785574      -1.403444
