36
36. XXXVI_r2scan_opt_freq | final stationary point
C          0.021359       1.164300       1.446200
C         -0.023505      -1.164243       1.448297
C          0.061541       2.357293       2.216685
C         -0.062468      -2.355673       2.221194
C          0.051252       3.587731       1.617692
C         -0.050401      -3.587338       1.624753
C         -0.007297       3.669274       0.216304
C          0.008466      -3.671665       0.223596
C         -0.037127       2.501154      -0.500054
C          0.036890      -2.504989      -0.495223
H          0.079041       4.490709       2.221115
H         -0.077097      -4.489100       2.230048
H         -0.033726       4.619316      -0.303452
H          0.035801      -4.622734      -0.294229
H         -0.093016       2.509867      -1.581058
H          0.092004      -2.516279      -1.576215
H          0.091621       2.236076       3.293230
H         -0.092796      -2.232323       3.297487
N         -0.001768       0.000647       2.103330
N         -0.004628       1.272625       0.074276
N          0.002893      -1.275216       0.076464
B         -0.004266      -0.002064      -0.898958
C          1.377061      -0.062835      -1.768769
C         -1.393043       0.058158      -1.756725
H          2.239338      -0.059143      -1.082342
H         -2.249533       0.060636      -1.063181
H          1.423784      -1.043755      -2.264627
H         -1.440682       1.036614      -2.257643
C          1.605204       0.996678      -2.856078
C         -1.632888      -1.007579      -2.835336
H          2.449053       0.730182      -3.503132
H         -2.483680      -0.745055      -3.474888
H          1.839134       1.979637      -2.433143
H         -1.862001      -1.987936      -2.403731
H          0.725389       1.108757      -3.502363
H         -0.760050      -1.123626      -3.490305
