42
37. XXXVII_r2scan_opt_freq | final stationary point
C         -0.084774       1.188797       1.964705
C         -0.014777      -1.138928       1.952252
C         -0.143964       2.376445       2.742426
C          0.032921      -2.335252       2.717390
C         -0.140034       3.610747       2.151453
C          0.041537      -3.562726       2.112391
C         -0.070056       3.701987       0.751044
C         -0.004061      -3.638088       0.709986
C         -0.022442       2.538953       0.027627
C         -0.041271      -2.466936      -0.000828
H         -0.182110       4.509435       2.760478
H          0.074502      -4.468263       2.711759
H         -0.048740       4.655513       0.237417
H         -0.015269      -4.585758       0.185308
H          0.041754       2.555290      -1.053048
H         -0.088124      -2.470926      -1.082508
H         -0.182940       2.248086       3.817891
H          0.052981      -2.219153       3.794765
N         -0.056459       0.021231       2.614525
N         -0.046961       1.306472       0.593778
N         -0.028271      -1.241112       0.579731
B         -0.033555       0.038086      -0.388097
C         -1.414170      -0.031432      -1.256969
C          1.353728       0.116809      -1.246077
H         -1.453437      -1.012956      -1.756163
H          1.402320       1.107554      -1.725529
H         -2.280481      -0.035624      -0.573645
H          2.214394       0.103284      -0.555863
C         -1.661161       1.019350      -2.347700
C          1.604246      -0.912106      -2.357058
H         -0.755692       1.144667      -2.960325
H          0.700630      -1.026788      -2.974280
H         -1.868776       1.997137      -1.893358
H          1.812429      -1.898243      -1.921350
C         -2.834487       0.656238      -3.259706
C          2.779518      -0.530065      -3.258605
H         -3.753697       0.528554      -2.676496
H          3.698460      -0.418949      -2.671593
H         -2.642876      -0.287373      -3.783765
H          2.590921       0.426527      -3.759786
H         -3.018604       1.428572      -4.014920
H          2.962321      -1.284367      -4.032133
