44
38. XXXVIII_r2scan_opt_freq | final stationary point
C         -0.423295       1.336778       1.960966
C         -0.486513      -0.977127       2.136876
C         -0.599025       2.589081       2.601384
C         -0.726877      -2.107598       2.958332
C         -0.072942       3.732487       2.058857
C         -0.268850      -3.346997       2.594376
C          0.651777       3.666205       0.855873
C          0.447568      -3.503204       1.394330
C          0.776349       2.448104       0.238432
C          0.635072      -2.400633       0.601043
H         -0.207682       4.685161       2.563350
H         -0.452524      -4.204224       3.236020
H          1.091863       4.546670       0.403692
H          0.831198      -4.465619       1.078206
H          1.297624       2.325669      -0.706106
H          1.148722      -2.452177      -0.354061
H         -1.144628       2.588882       3.537865
H         -1.265794      -1.936164       3.882860
N         -0.870112       0.230451       2.568292
N          0.241715       1.314432       0.753544
N          0.172037      -1.173493       0.941915
B          0.130981      -0.001946      -0.121709
C         -1.319008      -0.012294      -0.848334
C          1.384595      -0.116016      -1.131504
C         -2.059120      -1.190026      -1.016427
C          2.698916      -0.094300      -0.634319
C         -1.858340       1.159182      -1.398265
C          1.225162      -0.249674      -2.514941
C         -3.270196      -1.203301      -1.704336
C          3.800500      -0.198469      -1.475944
C         -3.067403       1.158195      -2.087517
C          2.323640      -0.355714      -3.368014
C         -3.779599      -0.027268      -2.244574
C          3.614112      -0.329771      -2.851176
H         -1.690468      -2.125939      -0.600306
H          2.861396       0.006958       0.438792
H         -1.325897       2.102513      -1.287204
H          0.220373      -0.272008      -2.930939
H         -3.819904      -2.134537      -1.813824
H          4.805678      -0.178064      -1.062890
H         -3.457296       2.085424      -2.499378
H          2.169197      -0.458874      -4.438852
H         -4.726088      -0.032612      -2.778191
H          4.471785      -0.411716      -3.513450
