43
39. XXXIX_r2scan_opt_freq | final stationary point
B          0.369393      -0.146092      -0.017862
N          0.654908       2.063538       1.180481
N          0.631456       2.069724      -1.210925
N          0.372634       0.800330       1.232060
N          0.349021       0.806490      -1.263270
C          0.856527       2.614354      -0.015982
O          1.521642      -1.064282      -0.030263
O         -0.785409      -1.039835      -0.011903
C          2.782735      -0.592961      -0.035023
C         -2.034421      -0.533001      -0.008383
O          3.062339       0.586597      -0.039112
O         -2.283688       0.653984       0.013540
C          3.792532      -1.708470      -0.026217
C         -3.068253      -1.623161      -0.046531
H         -2.896520      -2.329239       0.771506
H         -2.967151      -2.180321      -0.984007
H          3.688608      -2.286281       0.898065
H          3.602804      -2.393353      -0.858101
H          4.799252      -1.297343      -0.094814
H         -4.066265      -1.191763       0.024395
H          1.152285       3.656998      -0.016188
C         -0.040733       0.320939       2.504678
C         -0.091024       0.333635      -2.529391
C          0.137558      -1.027898       2.829597
C          0.082411      -1.013043      -2.865774
C         -0.631882       1.194564       3.422359
C         -0.704775       1.210950      -3.428538
C         -0.265627      -1.488744       4.076036
C         -0.348992      -1.468096      -4.104891
C         -1.026767       0.718528       4.663218
C         -1.127643       0.740737      -4.662401
C         -0.845833      -0.622016       4.997547
C         -0.952431      -0.597726      -5.007948
H          0.597008      -1.704451       2.118593
H          0.560290      -1.692495      -2.169860
H         -0.788792       2.230099       3.144859
H         -0.857047       2.244740      -3.141996
H         -0.117587      -2.534315       4.329093
H         -0.204527      -2.511951      -4.366999
H         -1.493299       1.397808       5.370408
H         -1.611616       1.422960      -5.354894
H         -1.160964      -0.989493       5.969478
H         -1.289657      -0.960657      -5.974150
