19
4. IV_r2scan_opt_freq | final stationary point
O         -1.376238      -1.382227      -0.000039
C         -1.624242      -0.156515      -0.000090
C         -0.610394       0.851499      -0.000120
C          0.743885       0.557689      -0.000111
C          1.770616       1.650049      -0.000064
H          2.417830       1.581894      -0.882323
H          1.287626       2.627571       0.000125
H          2.418033       1.581639       0.882026
C         -3.074682       0.282479       0.000148
H         -3.573504      -0.137320      -0.879447
H         -3.572767      -0.135934       0.880834
H         -3.193498       1.368804      -0.000610
H         -0.903069       1.894550      -0.000114
N          1.177135      -0.711752      -0.000180
H          0.412461      -1.397973      -0.000079
C          2.566271      -1.123404       0.000186
H          2.601733      -2.215022      -0.000559
H          3.104923      -0.768349      -0.888531
H          3.104140      -0.769573       0.889882
