56
40. XL_r2scan_opt_freq | final stationary point
B         -0.477628      -1.303033       0.000011
N          0.064947       0.861151       1.187874
N          0.064942       0.861145      -1.187860
N         -0.102906      -0.420491       1.236078
N         -0.102906      -0.420494      -1.236057
C          0.016054       1.478777       0.000006
O         -1.890200      -1.722670       0.000013
O          0.253550      -2.567175       0.000014
C         -2.884825      -0.815827       0.000003
C          1.601857      -2.578722       0.000005
O         -2.705687       0.383164      -0.000036
O          2.289025      -1.579418      -0.000025
C         -4.237908      -1.474280      -0.000026
C          2.135365      -3.983698      -0.000012
H          1.763682      -4.515787       0.881529
H          1.763647      -4.515781      -0.881541
H         -4.337267      -2.116738       0.880515
H         -4.337221      -2.116758      -0.880558
H         -5.018788      -0.714409      -0.000055
H          3.224794      -3.967865      -0.000033
C          0.196147      -1.021780       2.488633
C          0.196140      -1.021782      -2.488612
C         -0.460202      -2.198110       2.863211
C         -0.460212      -2.198111      -2.863188
C          1.144843      -0.441174       3.334682
C          1.144828      -0.441173      -3.334665
C         -0.170351      -2.778935       4.090892
C         -0.170371      -2.778930      -4.090874
C          1.421343      -1.032790       4.558009
C          1.421318      -1.032784      -4.557998
C          0.766882      -2.201181       4.942761
C          0.766854      -2.201172      -4.942749
H         -1.197608      -2.643404       2.204927
H         -1.197613      -2.643406      -2.204901
H          1.666784       0.452624       3.012822
H          1.666771       0.452624      -3.012807
H         -0.687978      -3.687005       4.385299
H         -0.688001      -3.686999      -4.385280
H          2.166125      -0.586130       5.209928
H          2.166093      -0.586120      -5.209922
H          0.991288      -2.661902       5.900035
H          0.991251      -2.661889      -5.900028
C          0.054796       2.951677       0.000003
C          0.066400       3.667585       1.202364
C          0.066393       3.667584      -1.202360
C          0.104051       5.054660       1.196014
C          0.104044       5.054657      -1.196011
C          0.122550       5.775714       0.000001
H          0.046297       3.129935       2.144205
H          0.046286       3.129933      -2.144199
H          0.115203       5.590212       2.142651
H          0.115191       5.590208      -2.142649
C          0.122372       7.279541      -0.000006
H          0.623414       7.678192       0.887088
H          0.623745       7.678183      -0.886918
H         -0.903419       7.668871      -0.000201
