49
41. XLI_r2scan_opt_freq | final stationary point
B          0.672688      -0.123655      -0.000010
N          0.232211       2.056384       1.192316
N          0.232200       2.056388      -1.192326
N          0.297362       0.761925       1.232377
N          0.297345       0.761930      -1.232389
C          0.329435       2.646728      -0.000005
O          2.086777      -0.550547      -0.000022
O         -0.046388      -1.394707      -0.000000
C          3.106927       0.323257      -0.000015
C         -1.388204      -1.442362       0.000086
O          2.970858       1.528184       0.000024
O         -2.107674      -0.462686       0.000210
C          4.438608      -0.379582      -0.000013
C         -1.887046      -2.859638       0.000084
H         -1.501171      -3.381758       0.881391
H         -1.501330      -3.381698      -0.881328
H          4.517029      -1.025661       0.880021
H          4.517049      -1.025625      -0.880072
H          5.244548       0.353698       0.000011
H         -2.976541      -2.871934       0.000182
H          0.354026       3.730124      -0.000003
C         -0.063063       0.157022       2.472675
C         -0.063071       0.157033      -2.472692
C          0.733686      -0.899088       2.923918
C          0.733667      -0.899091      -2.923922
C         -1.196895       0.576134       3.194175
C         -1.196878       0.576170      -3.194216
C          0.442384      -1.531844       4.122271
C          0.442375      -1.531843      -4.122280
C         -1.459854      -0.084200       4.396661
C         -1.459829      -0.084160      -4.396706
C         -0.656761      -1.116321       4.866594
C         -0.656750      -1.116299      -4.866622
H          1.586645      -1.210270       2.330304
H          1.586609      -1.210289      -2.330292
H          1.073722      -2.342425       4.472822
H          1.073703      -2.342436      -4.472819
H         -2.335331       0.214619       4.967534
H         -2.335287       0.214679      -4.967598
H         -0.898533      -1.603811       5.806503
H         -0.898513      -1.603785      -5.806536
C         -2.147761       1.632734       2.706828
C         -2.147723       1.632801      -2.706895
H         -2.320277       1.539283       1.631191
H         -2.320262       1.539362      -1.631262
H         -3.107404       1.526794       3.220086
H         -3.107359       1.526886      -3.220171
H         -1.762051       2.638706       2.896231
H         -1.761979       2.638760      -2.896299
