18
5. V_r2scan_opt_freq | final stationary point
O         -1.532356      -1.372650       0.001260
C         -1.877916      -0.192046      -0.001392
C          0.439948       0.708701       0.000662
C         -0.908361       0.890104      -0.000702
H         -1.281622       1.911613      -0.001399
C         -3.341511       0.197725      -0.000353
C          1.354640       1.897389       0.000801
H         -3.573459       0.806691      -0.882009
H          0.768439       2.819004      -0.000237
H          2.003255       1.904839       0.883245
H         -3.572140       0.807136       0.881374
H         -3.963054      -0.698661       0.000384
H          2.004845       1.903844      -0.880490
S          1.131640      -0.907492       0.001670
C          2.938117      -0.566424      -0.000311
H          3.401855      -1.556550      -0.000569
H          3.261837      -0.032908      -0.897305
H          3.263710      -0.032512       0.895765
