15
6. VI_r2scan_opt_freq | final stationary point
H          0.203233      -1.605167      -0.000141
O         -1.376739      -1.296154       0.000136
C         -1.488042      -0.055984       0.000238
C          0.954755       0.509817      -0.000046
C         -0.365723       0.855058       0.000359
H         -0.604094       1.916055       0.000595
C         -2.866119       0.559585      -0.000031
C          2.030440       1.554120       0.000114
H         -2.993913       1.198683      -0.881204
H          2.672104       1.441004      -0.880772
H          1.603819       2.559976       0.000113
H         -2.994652       1.197504       0.881891
H         -3.625025      -0.223572      -0.000836
H          2.671853       1.440961       0.881213
S          1.525270      -1.137773      -0.000648
