15
7. VII_r2scan_opt_freq | final stationary point
H         -0.418274      -1.536967       0.001492
O         -1.404452      -1.260528       0.000737
C         -1.452938       0.053027       0.000056
C          1.012397       0.433845      -0.000496
C         -0.335144       0.864328      -0.000236
H         -0.517565       1.935581      -0.000335
C         -2.840487       0.598517      -0.000162
C          2.054782       1.520244       0.000550
H         -2.845906       1.689333      -0.000514
H          1.932485       2.154074       0.887577
H          3.062878       1.105525      -0.007302
H         -3.379319       0.231896       0.880600
H         -3.379270       0.231334      -0.880721
H          1.922919       2.166401      -0.876072
S          1.503926      -1.179685      -0.001881
