15
8. VIII_r2scan_opt_freq | final stationary point
H          0.911855      -1.733174       0.000108
O         -0.102944      -1.578894       0.000084
O          2.359017      -1.186004      -0.000032
C         -0.219736      -0.270876      -0.000013
C          2.170556       0.048500      -0.000051
C          0.832080       0.593498      -0.000060
H          0.666061       1.662362      -0.000089
C         -1.668128       0.190480      -0.000020
C          3.336204       0.994514      -0.000029
F         -1.757927       1.534066      -0.000126
H          3.289465       1.644776      -0.881058
H          4.273660       0.437603       0.000327
H          3.289068       1.645315       0.880575
F         -2.312772      -0.269958      -1.088692
F         -2.312731      -0.269781       1.088749
