15
9. IX_r2scan_opt_freq | final stationary point
H          0.419576       1.986349      -0.036446
O          1.344448       1.592045      -0.056535
O         -1.212722       1.700657       0.006368
C          1.179291       0.289378      -0.042618
C         -1.210207       0.465483       0.016174
C         -0.027604      -0.343258      -0.007355
H         -0.087331      -1.422957       0.001961
C          2.502081      -0.464162      -0.066358
F          2.304608      -1.793091      -0.069174
F          3.207245      -0.138980      -1.163495
F          3.237714      -0.148444       1.014126
C         -2.561934      -0.285822       0.053396
F         -2.673297      -1.075837      -1.037983
F         -2.613487      -1.081868       1.144265
F         -3.596503       0.549904       0.083946
